\ LP format - for model browsing. Use MPS format to capture full model detail.
Minimize
 
Subject To
 R0: X0_0_0 + X0_0_1 = 1
 R1: X0_1_0 + X0_1_1 = 1
 R2: X1_0_0 + X1_0_1 = 1
 R3: X1_1_0 + X1_1_1 = 1
 R4: X2_0_0 + X2_0_1 = 1
 R5: X2_1_0 + X2_1_1 = 1
 R6: X0_0_0 + X0_1_0 = 1
 R7: X1_0_0 + X1_1_0 = 1
 R8: X2_0_0 + X2_1_0 = 1
 R9: X0_0_1 + X0_1_1 = 1
 R10: X1_0_1 + X1_1_1 = 1
 R11: X2_0_1 + X2_1_1 = 1
 R12: - X0_0_0 + Y0_0_1_1_0 <= 0
 R13: - X0_0_0 + Y0_0_1_1_0 <= 0
 R14: - 2 X0_0_0 + Y0_0_1_1_0 >= -1
 R15: - X0_0_0 + Y0_0_2_1_0 <= 0
 R16: - X0_1_0 + Y0_0_2_1_0 <= 0
 R17: - X0_0_0 - X0_1_0 + Y0_0_2_1_0 >= -1
 R18: - X0_1_0 + Y1_0_2_1_0 <= 0
 R19: - X0_0_0 + Y1_0_2_1_0 <= 0
 R20: - X0_0_0 - X0_1_0 + Y1_0_2_1_0 >= -1
 R21: - X0_0_1 + Y0_0_1_1_1 <= 0
 R22: - X0_0_1 + Y0_0_1_1_1 <= 0
 R23: - 2 X0_0_1 + Y0_0_1_1_1 >= -1
 R24: - X0_0_1 + Y0_0_2_1_1 <= 0
 R25: - X0_1_1 + Y0_0_2_1_1 <= 0
 R26: - X0_0_1 - X0_1_1 + Y0_0_2_1_1 >= -1
 R27: - X0_1_1 + Y1_0_2_1_1 <= 0
 R28: - X0_0_1 + Y1_0_2_1_1 <= 0
 R29: - X0_0_1 - X0_1_1 + Y1_0_2_1_1 >= -1
Bounds
Binaries
 X0_0_0 X0_0_1 X0_1_0 X0_1_1 X1_0_0 X1_0_1 X1_1_0 X1_1_1 X2_0_0 X2_0_1
 X2_1_0 X2_1_1 Y0_0_1_1_0 Y0_0_1_1_1 Y0_0_2_1_0 Y0_0_2_1_1 Y1_0_2_1_0
 Y1_0_2_1_1
End
